rcpsp/heur_output_or_constraints/Log=5/heurj90.txt
encoding rcpsp/j90.sm/j9035_5.sm nv: 513252 nc: 1226701 enctime: 20.26
encoding rcpsp/j90.sm/j9035_5.sm nv: 93492 nc: 219981 enctime: 1.12
c File: j9035_5.smnaiveor5.wcnf
c optimal
c final solution cost: 95
c CPU time: 4.067167
s OPTIMUM FOUND

c File: j9035_5.smor5.wcnf
c optimal
c final solution cost: 95
c CPU time: 0.246309
s OPTIMUM FOUND


rcpsp/heur_output_or_constraints/Log=5/heurj90.txt
encoding rcpsp/j90.sm/j9035_6.sm nv: 501228 nc: 1144091 enctime: 16.52
encoding rcpsp/j90.sm/j9035_6.sm nv: 72657 nc: 162814 enctime: 0.79
c File: j9035_6.smnaiveor5.wcnf
c optimal
c final solution cost: 68
c CPU time: 3.751744
s OPTIMUM FOUND

c File: j9035_6.smor5.wcnf
c optimal
c final solution cost: 68
c CPU time: 0.179507
s OPTIMUM FOUND


rcpsp/heur_output_or_constraints/Log=5/heurj90.txt
encoding rcpsp/j90.sm/j9035_7.sm nv: 434250 nc: 992620 enctime: 14.52
encoding rcpsp/j90.sm/j9035_7.sm nv: 71410 nc: 160532 enctime: 1.22
c File: j9035_7.smnaiveor5.wcnf
c optimal
c final solution cost: 70
c CPU time: 3.388190
s OPTIMUM FOUND

c File: j9035_7.smor5.wcnf
c optimal
c final solution cost: 70
c CPU time: 0.227988
s OPTIMUM FOUND


rcpsp/heur_output_or_constraints/Log=5/heurj90.txt
encoding rcpsp/j90.sm/j9035_8.sm nv: 493136 nc: 1126533 enctime: 16.15
encoding rcpsp/j90.sm/j9035_8.sm nv: 91168 nc: 205421 enctime: 1.54
c File: j9035_8.smnaiveor5.wcnf
c optimal
c final solution cost: 85
c CPU time: 3.453879
s OPTIMUM FOUND

c File: j9035_8.smor5.wcnf
c optimal
c final solution cost: 85
c CPU time: 0.229351
s OPTIMUM FOUND


rcpsp/heur_output_or_constraints/Log=5/heurj90.txt
encoding rcpsp/j90.sm/j9035_9.sm nv: 476844 nc: 1086085 enctime: 15.90
encoding rcpsp/j90.sm/j9035_9.sm nv: 65390 nc: 145794 enctime: 1.17
c File: j9035_9.smnaiveor5.wcnf
c optimal
c final solution cost: 61
c CPU time: 3.356492
s OPTIMUM FOUND

c File: j9035_9.smor5.wcnf
c optimal
c final solution cost: 61
c CPU time: 0.154772
s OPTIMUM FOUND


rcpsp/heur_output_or_constraints/Log=5/heurj90.txt
encoding rcpsp/j90.sm/j903_5.sm nv: 687659 nc: 1514097 enctime: 18.43
encoding rcpsp/j90.sm/j903_5.sm nv: 105378 nc: 228855 enctime: 1.07
c File: j903_5.smnaiveor5.wcnf
c optimal
c final solution cost: 71
c CPU time: 3.901097
s OPTIMUM FOUND

c File: j903_5.smor5.wcnf
c optimal
c final solution cost: 71
c CPU time: 0.224676
s OPTIMUM FOUND


rcpsp/heur_output_or_constraints/Log=5/heurj90.txt
encoding rcpsp/j90.sm/j9036_10.sm nv: 594868 nc: 1349871 enctime: 19.29
encoding rcpsp/j90.sm/j9036_10.sm nv: 121784 nc: 273211 enctime: 2.07
c File: j9036_10.smnaiveor5.wcnf
c optimal
c final solution cost: 103
c CPU time: 4.087813
s OPTIMUM FOUND

c File: j9036_10.smor5.wcnf
c optimal
c final solution cost: 103
c CPU time: 0.295373
s OPTIMUM FOUND


rcpsp/heur_output_or_constraints/Log=5/heurj90.txt
encoding rcpsp/j90.sm/j9036_1.sm nv: 493188 nc: 1096776 enctime: 14.65
encoding rcpsp/j90.sm/j9036_1.sm nv: 92332 nc: 202860 enctime: 1.00
c File: j9036_1.smnaiveor5.wcnf
c optimal
c final solution cost: 76
c CPU time: 2.925783
s OPTIMUM FOUND

c File: j9036_1.smor5.wcnf
c optimal
c final solution cost: 76
c CPU time: 0.225910
s OPTIMUM FOUND


rcpsp/heur_output_or_constraints/Log=5/heurj90.txt
encoding rcpsp/j90.sm/j9036_2.sm nv: 529830 nc: 1241750 enctime: 19.15
encoding rcpsp/j90.sm/j9036_2.sm nv: 116725 nc: 270241 enctime: 2.03
c File: j9036_2.smnaiveor5.wcnf
c optimal
c final solution cost: 114
c CPU time: 4.008665
s OPTIMUM FOUND

c File: j9036_2.smor5.wcnf
c optimal
c final solution cost: 114
c CPU time: 0.299538
s OPTIMUM FOUND


rcpsp/heur_output_or_constraints/Log=5/heurj90.txt
encoding rcpsp/j90.sm/j9036_3.sm nv: 656370 nc: 1470417 enctime: 20.24
encoding rcpsp/j90.sm/j9036_3.sm nv: 97812 nc: 215723 enctime: 1.59
c File: j9036_3.smnaiveor5.wcnf
c optimal
c final solution cost: 74
c CPU time: 4.140571
s OPTIMUM FOUND

c File: j9036_3.smor5.wcnf
c optimal
c final solution cost: 74
c CPU time: 0.222990
s OPTIMUM FOUND


rcpsp/heur_output_or_constraints/Log=5/heurj90.txt
encoding rcpsp/j90.sm/j9036_4.sm nv: 548948 nc: 1220657 enctime: 16.82
encoding rcpsp/j90.sm/j9036_4.sm nv: 78926 nc: 172484 enctime: 1.32
c File: j9036_4.smnaiveor5.wcnf
c optimal
c final solution cost: 63
c CPU time: 3.413560
s OPTIMUM FOUND

c File: j9036_4.smor5.wcnf
c optimal
c final solution cost: 63
c CPU time: 0.177572
s OPTIMUM FOUND


rcpsp/heur_output_or_constraints/Log=5/heurj90.txt
encoding rcpsp/j90.sm/j9036_5.sm nv: 590336 nc: 1344675 enctime: 19.53
encoding rcpsp/j90.sm/j9036_5.sm nv: 94546 nc: 212055 enctime: 1.67
c File: j9036_5.smnaiveor5.wcnf
c optimal
c final solution cost: 80
c CPU time: 3.993063
s OPTIMUM FOUND

c File: j9036_5.smor5.wcnf
c optimal
c final solution cost: 80
c CPU time: 0.230035
s OPTIMUM FOUND


rcpsp/heur_output_or_constraints/Log=5/heurj90.txt
encoding rcpsp/j90.sm/j9036_6.sm nv: 623570 nc: 1379407 enctime: 19.11
encoding rcpsp/j90.sm/j9036_6.sm nv: 113030 nc: 246973 enctime: 1.25
c File: j9036_6.smnaiveor5.wcnf
c optimal
c final solution cost: 88
c CPU time: 3.858995
s OPTIMUM FOUND

c File: j9036_6.smor5.wcnf
c optimal
c final solution cost: 88
c CPU time: 0.247449
s OPTIMUM FOUND


rcpsp/heur_output_or_constraints/Log=5/heurj90.txt
encoding rcpsp/j90.sm/j9036_7.sm nv: 571206 nc: 1297331 enctime: 18.60
encoding rcpsp/j90.sm/j9036_7.sm nv: 90613 nc: 202484 enctime: 1.53
c File: j9036_7.smnaiveor5.wcnf
c optimal
c final solution cost: 74
c CPU time: 3.768617
s OPTIMUM FOUND

c File: j9036_7.smor5.wcnf
c optimal
c final solution cost: 74
c CPU time: 0.217252
s OPTIMUM FOUND


rcpsp/heur_output_or_constraints/Log=5/heurj90.txt
encoding rcpsp/j90.sm/j9036_8.sm nv: 606528 nc: 1341098 enctime: 17.73
encoding rcpsp/j90.sm/j9036_8.sm nv: 93312 nc: 203390 enctime: 1.46
c File: j9036_8.smnaiveor5.wcnf
c optimal
c final solution cost: 69
c CPU time: 3.660522
s OPTIMUM FOUND

c File: j9036_8.smor5.wcnf
c optimal
c final solution cost: 69
c CPU time: 0.224339
s OPTIMUM FOUND


rcpsp/heur_output_or_constraints/Log=5/heurj90.txt
encoding rcpsp/j90.sm/j9036_9.sm nv: 633920 nc: 1469391 enctime: 22.95
encoding rcpsp/j90.sm/j9036_9.sm nv: 99616 nc: 227087 enctime: 1.13
c File: j9036_9.smnaiveor5.wcnf
c optimal
c final solution cost: 87
c CPU time: 4.658934
s OPTIMUM FOUND

c File: j9036_9.smor5.wcnf
c optimal
c final solution cost: 87
c CPU time: 0.222052
s OPTIMUM FOUND


rcpsp/heur_output_or_constraints/Log=5/heurj90.txt
encoding rcpsp/j90.sm/j903_6.sm nv: 502320 nc: 1112470 enctime: 14.13
encoding rcpsp/j90.sm/j903_6.sm nv: 75348 nc: 164295 enctime: 0.78
c File: j903_6.smnaiveor5.wcnf
c optimal
c final solution cost: 68
c CPU time: 2.886350
s OPTIMUM FOUND

c File: j903_6.smor5.wcnf
c optimal
c final solution cost: 68
c CPU time: 0.207204
s OPTIMUM FOUND


rcpsp/heur_output_or_constraints/Log=5/heurj90.txt
encoding rcpsp/j90.sm/j9037_10.sm nv: 902272 nc: 1998759 enctime: 25.64
encoding rcpsp/j90.sm/j9037_10.sm nv: 234048 nc: 515349 enctime: 3.43
c File: j9037_10.smnaiveor5.wcnf
c timeout
c final solution cost: 120
c CPU time: 64.234259
s UNKNOWN

c File: j9037_10.smor5.wcnf
c timeout
c final solution cost: 119
c CPU time: 60.510976
s UNKNOWN


rcpsp/heur_output_or_constraints/Log=5/heurj90.txt
encoding rcpsp/j90.sm/j9037_1.sm nv: 980720 nc: 2140853 enctime: 25.61
encoding rcpsp/j90.sm/j9037_1.sm nv: 233864 nc: 507353 enctime: 3.37
c File: j9037_1.smnaiveor5.wcnf
c timeout
c final solution cost: 106
c CPU time: 64.607449
s UNKNOWN

c File: j9037_1.smor5.wcnf
c timeout
c final solution cost: 104
c CPU time: 60.468855
s UNKNOWN


rcpsp/heur_output_or_constraints/Log=5/heurj90.txt
encoding rcpsp/j90.sm/j9037_2.sm nv: 890500 nc: 1943547 enctime: 23.42
encoding rcpsp/j90.sm/j9037_2.sm nv: 238654 nc: 517977 enctime: 3.45
c File: j9037_2.smnaiveor5.wcnf
c timeout
c final solution cost: 113
c CPU time: 63.905611
s UNKNOWN

c File: j9037_2.smor5.wcnf
c timeout
c final solution cost: 112
c CPU time: 60.504589
s UNKNOWN


rcpsp/heur_output_or_constraints/Log=5/heurj90.txt
encoding rcpsp/j90.sm/j9037_3.sm nv: 779475 nc: 1709181 enctime: 20.35
encoding rcpsp/j90.sm/j9037_3.sm nv: 239586 nc: 522807 enctime: 3.46
c File: j9037_3.smnaiveor5.wcnf
c timeout
c final solution cost: 120
c CPU time: 63.464076
s UNKNOWN

c File: j9037_3.smor5.wcnf
c timeout
c final solution cost: 120
c CPU time: 60.537399
s UNKNOWN


rcpsp/heur_output_or_constraints/Log=5/heurj90.txt
encoding rcpsp/j90.sm/j9037_4.sm nv: 845894 nc: 1872608 enctime: 23.39
encoding rcpsp/j90.sm/j9037_4.sm nv: 240051 nc: 528475 enctime: 4.34
c File: j9037_4.smnaiveor5.wcnf
c timeout
c final solution cost: 123
c CPU time: 64.037813
s UNKNOWN

c File: j9037_4.smor5.wcnf
c timeout
c final solution cost: 124
c CPU time: 60.553215
s UNKNOWN


rcpsp/heur_output_or_constraints/Log=5/heurj90.txt
encoding rcpsp/j90.sm/j9037_5.sm nv: 771210 nc: 1707413 enctime: 21.06
encoding rcpsp/j90.sm/j9037_5.sm nv: 221236 nc: 487092 enctime: 3.27
c File: j9037_5.smnaiveor5.wcnf
c timeout
c final solution cost: 120
c CPU time: 63.740199
s UNKNOWN

c File: j9037_5.smor5.wcnf
c timeout
c final solution cost: 124
c CPU time: 60.516176
s UNKNOWN


rcpsp/heur_output_or_constraints/Log=5/heurj90.txt
encoding rcpsp/j90.sm/j9037_6.sm nv: 952590 nc: 2127053 enctime: 27.46
encoding rcpsp/j90.sm/j9037_6.sm nv: 271200 nc: 602267 enctime: 4.04
c File: j9037_6.smnaiveor5.wcnf
c timeout
c final solution cost: 128
c CPU time: 64.625334
s UNKNOWN

c File: j9037_6.smor5.wcnf
c timeout
c final solution cost: 127
c CPU time: 60.626714
s UNKNOWN


rcpsp/heur_output_or_constraints/Log=5/heurj90.txt
encoding rcpsp/j90.sm/j9037_7.sm nv: 793638 nc: 1742516 enctime: 21.13
encoding rcpsp/j90.sm/j9037_7.sm nv: 236785 nc: 517303 enctime: 4.22
c File: j9037_7.smnaiveor5.wcnf
c timeout
c final solution cost: 123
c CPU time: 63.589336
s UNKNOWN

c File: j9037_7.smor5.wcnf
c timeout
c final solution cost: 122
c CPU time: 60.554209
s UNKNOWN


rcpsp/heur_output_or_constraints/Log=5/heurj90.txt
encoding rcpsp/j90.sm/j9037_8.sm nv: 893944 nc: 1973440 enctime: 24.66
encoding rcpsp/j90.sm/j9037_8.sm nv: 245664 nc: 539320 enctime: 3.60
c File: j9037_8.smnaiveor5.wcnf
c timeout
c final solution cost: 119
c CPU time: 64.181944
s UNKNOWN

c File: j9037_8.smor5.wcnf
c timeout
c final solution cost: 124
c CPU time: 60.547528
s UNKNOWN


rcpsp/heur_output_or_constraints/Log=5/heurj90.txt
encoding rcpsp/j90.sm/j9037_9.sm nv: 754929 nc: 1661248 enctime: 20.71
encoding rcpsp/j90.sm/j9037_9.sm nv: 221946 nc: 485821 enctime: 3.35
c File: j9037_9.smnaiveor5.wcnf
c timeout
c final solution cost: 143
c CPU time: 63.616569
s UNKNOWN

c File: j9037_9.smor5.wcnf
c timeout
c final solution cost: 121
c CPU time: 60.506995
s UNKNOWN


rcpsp/heur_output_or_constraints/Log=5/heurj90.txt
encoding rcpsp/j90.sm/j903_7.sm nv: 428230 nc: 965359 enctime: 12.81
encoding rcpsp/j90.sm/j903_7.sm nv: 81345 nc: 180694 enctime: 0.90
c File: j903_7.smnaiveor5.wcnf
c optimal
c final solution cost: 86
c CPU time: 2.647306
s OPTIMUM FOUND

c File: j903_7.smor5.wcnf
c optimal
c final solution cost: 86
c CPU time: 0.185881
s OPTIMUM FOUND


rcpsp/heur_output_or_constraints/Log=5/heurj90.txt
encoding rcpsp/j90.sm/j9038_10.sm nv: 1237021 nc: 2621493 enctime: 27.41
encoding rcpsp/j90.sm/j9038_10.sm nv: 245421 nc: 517093 enctime: 3.32
c File: j9038_10.smnaiveor5.wcnf
c optimal
c final solution cost: 82
c CPU time: 18.083030
s OPTIMUM FOUND

c File: j9038_10.smor5.wcnf
c optimal
c final solution cost: 82
c CPU time: 1.584170
s OPTIMUM FOUND


rcpsp/heur_output_or_constraints/Log=5/heurj90.txt
encoding rcpsp/j90.sm/j9038_1.sm nv: 1357056 nc: 2857060 enctime: 29.54
encoding rcpsp/j90.sm/j9038_1.sm nv: 254448 nc: 532556 enctime: 3.44
c File: j9038_1.smnaiveor5.wcnf
c optimal
c final solution cost: 76
c CPU time: 9.593156
s OPTIMUM FOUND

c File: j9038_1.smor5.wcnf
c optimal
c final solution cost: 76
c CPU time: 1.856848
s OPTIMUM FOUND


rcpsp/heur_output_or_constraints/Log=5/heurj90.txt
encoding rcpsp/j90.sm/j9038_2.sm nv: 1358970 nc: 2841531 enctime: 28.32
encoding rcpsp/j90.sm/j9038_2.sm nv: 226980 nc: 471743 enctime: 2.98
c File: j9038_2.smnaiveor5.wcnf
c optimal
c final solution cost: 73
c CPU time: 6.116429
s OPTIMUM FOUND

c File: j9038_2.smor5.wcnf
c optimal
c final solution cost: 73
c CPU time: 0.617514
s OPTIMUM FOUND


rcpsp/heur_output_or_constraints/Log=5/heurj90.txt
encoding rcpsp/j90.sm/j9038_3.sm nv: 1394540 nc: 2928505 enctime: 29.83
encoding rcpsp/j90.sm/j9038_3.sm nv: 276062 nc: 576793 enctime: 3.61
c File: j9038_3.smnaiveor5.wcnf
c optimal
c final solution cost: 87
c CPU time: 6.093609
s OPTIMUM FOUND

c File: j9038_3.smor5.wcnf
c optimal
c final solution cost: 87
c CPU time: 0.729208
s OPTIMUM FOUND


rcpsp/heur_output_or_constraints/Log=5/heurj90.txt
encoding rcpsp/j90.sm/j9038_4.sm nv: 1354197 nc: 2863059 enctime: 30.01
encoding rcpsp/j90.sm/j9038_4.sm nv: 253745 nc: 533199 enctime: 3.46
c File: j9038_4.smnaiveor5.wcnf
c optimal
c final solution cost: 87
c CPU time: 6.467389
s OPTIMUM FOUND

c File: j9038_4.smor5.wcnf
c optimal
c final solution cost: 87
c CPU time: 0.701231
s OPTIMUM FOUND


rcpsp/heur_output_or_constraints/Log=5/heurj90.txt
encoding rcpsp/j90.sm/j9038_5.sm nv: 1308918 nc: 2779946 enctime: 29.37
encoding rcpsp/j90.sm/j9038_5.sm nv: 221936 nc: 468062 enctime: 3.02
c File: j9038_5.smnaiveor5.wcnf
c timeout
c final solution cost: 72
c CPU time: 64.545974
s UNKNOWN

c File: j9038_5.smor5.wcnf
c timeout
c final solution cost: 72
c CPU time: 60.365147
s UNKNOWN


rcpsp/heur_output_or_constraints/Log=5/heurj90.txt
encoding rcpsp/j90.sm/j9038_6.sm nv: 1362843 nc: 2862759 enctime: 28.90
encoding rcpsp/j90.sm/j9038_6.sm nv: 242469 nc: 506235 enctime: 3.24
c File: j9038_6.smnaiveor5.wcnf
c optimal
c final solution cost: 79
c CPU time: 6.730069
s OPTIMUM FOUND

c File: j9038_6.smor5.wcnf
c optimal
c final solution cost: 79
c CPU time: 0.685901
s OPTIMUM FOUND


rcpsp/heur_output_or_constraints/Log=5/heurj90.txt
encoding rcpsp/j90.sm/j9038_7.sm nv: 1380954 nc: 2903479 enctime: 29.48
encoding rcpsp/j90.sm/j9038_7.sm nv: 216294 nc: 451519 enctime: 2.96
c File: j9038_7.smnaiveor5.wcnf
c timeout
c final solution cost: 71
c CPU time: 64.428455
s UNKNOWN

c File: j9038_7.smor5.wcnf
c timeout
c final solution cost: 70
c CPU time: 60.353094
s UNKNOWN


rcpsp/heur_output_or_constraints/Log=5/heurj90.txt
encoding rcpsp/j90.sm/j9038_8.sm nv: 1574720 nc: 3316533 enctime: 33.56
encoding rcpsp/j90.sm/j9038_8.sm nv: 263440 nc: 551327 enctime: 3.55
c File: j9038_8.smnaiveor5.wcnf
c optimal
c final solution cost: 78
c CPU time: 43.401406
s OPTIMUM FOUND

c File: j9038_8.smor5.wcnf
c optimal
c final solution cost: 78
c CPU time: 52.948901
s OPTIMUM FOUND


rcpsp/heur_output_or_constraints/Log=5/heurj90.txt
encoding rcpsp/j90.sm/j9038_9.sm nv: 1376331 nc: 2934641 enctime: 31.96
encoding rcpsp/j90.sm/j9038_9.sm nv: 251174 nc: 531994 enctime: 3.52
c File: j9038_9.smnaiveor5.wcnf
c optimal
c final solution cost: 83
c CPU time: 15.896812
s OPTIMUM FOUND

c File: j9038_9.smor5.wcnf
c optimal
c final solution cost: 83
c CPU time: 1.911188
s OPTIMUM FOUND


rcpsp/heur_output_or_constraints/Log=5/heurj90.txt
encoding rcpsp/j90.sm/j903_8.sm nv: 501486 nc: 1138284 enctime: 14.81
encoding rcpsp/j90.sm/j903_8.sm nv: 74518 nc: 166052 enctime: 1.28
c File: j903_8.smnaiveor5.wcnf
c optimal
c final solution cost: 68
c CPU time: 3.096310
s OPTIMUM FOUND

c File: j903_8.smor5.wcnf
c optimal
c final solution cost: 68
c CPU time: 0.167336
s OPTIMUM FOUND


rcpsp/heur_output_or_constraints/Log=5/heurj90.txt
encoding rcpsp/j90.sm/j9039_10.sm nv: 1652510 nc: 3452560 enctime: 34.00
encoding rcpsp/j90.sm/j9039_10.sm nv: 292565 nc: 607885 enctime: 3.88
c File: j9039_10.smnaiveor5.wcnf
c optimal
c final solution cost: 86
c CPU time: 7.548171
s OPTIMUM FOUND

c File: j9039_10.smor5.wcnf
c optimal
c final solution cost: 86
c CPU time: 0.792055
s OPTIMUM FOUND


